# mode
ISTART = 0
ICHARG = 2

ISIF = 0
IBRION = 2
NSW = 1000
EDIFF = 2E-2
EDIFFG = -0.02
ISYM = 0

# dft
ISMEAR = 0
SIGMA = 0.05
ISPIN = 2
LREAL = Auto
PREC = Low

# behavior
LWAVE = .FALSE.

NCORE = {taskpernode}
